(set-logic QF_LIA)
(declare-fun x0 () Int)
(declare-fun x1 () Int)
(declare-fun x2 () Int)
(declare-fun x3 () Int)
(declare-fun x4 () Int)
(declare-fun x5 () Int)
(declare-fun x6 () Int)
(declare-fun x7 () Int)
(declare-fun x8 () Int)
(declare-fun x9 () Int)
(declare-fun A0 () Bool)
(declare-fun A1 () Bool)
(declare-fun A2 () Bool)
(declare-fun A3 () Bool)
(declare-fun A4 () Bool)
(declare-fun A5 () Bool)
(declare-fun A6 () Bool)
(declare-fun A7 () Bool)
(declare-fun A8 () Bool)
(declare-fun A9 () Bool)
(assert (let ((.def_0 (* (- 1) x3))) (let ((.def_1 (< .def_0 (- 1)))) (let ((.def_2 (= A9 .def_1))) (let ((.def_3 (not .def_2))) (let ((.def_4 (not A6))) (let ((.def_5 (and A0 .def_4))) (let ((.def_6 (or .def_5 .def_3))) (let ((.def_7 (not A7))) (let ((.def_8 (or .def_4 .def_7))) (let ((.def_9 (not .def_8))) (let ((.def_10 (not A3))) (let ((.def_11 (* (- 1) x4))) (let ((.def_12 (* 1 x3))) (let ((.def_13 (+ .def_12 .def_11))) (let ((.def_14 (< .def_13 1))) (let ((.def_15 (or .def_14 .def_10))) (let ((.def_16 (or .def_15 .def_9))) (let ((.def_17 (and .def_16 .def_6))) (let ((.def_18 (= A5 .def_4))) (let ((.def_19 (not .def_18))) (let ((.def_20 (* 1 x4))) (let ((.def_21 (* 1 x1))) (let ((.def_22 (+ .def_21 .def_20))) (let ((.def_23 (< .def_22 (- 1)))) (let ((.def_24 (not .def_23))) (let ((.def_25 (and .def_24 .def_10))) (let ((.def_26 (and .def_25 .def_19))) (let ((.def_27 (* (- 1) x8))) (let ((.def_28 (* (- 1) x9))) (let ((.def_29 (+ .def_28 .def_27))) (let ((.def_30 (< .def_29 (- 1)))) (let ((.def_31 (and A3 .def_30))) (let ((.def_32 (not .def_31))) (let ((.def_33 (and A7 A1))) (let ((.def_34 (and .def_33 .def_32))) (let ((.def_35 (not .def_34))) (let ((.def_36 (or .def_35 .def_26))) (let ((.def_37 (and .def_36 .def_17))) (let ((.def_38 (not .def_37))) (let ((.def_39 (* (- 1) x2))) (let ((.def_40 (< .def_39 (- 1)))) (let ((.def_41 (not .def_40))) (let ((.def_42 (* (- 1) x7))) (let ((.def_43 (< .def_42 1))) (let ((.def_44 (not .def_43))) (let ((.def_45 (or .def_44 .def_41))) (let ((.def_46 (* (- 1) x6))) (let ((.def_47 (+ .def_0 .def_46))) (let ((.def_48 (< .def_47 (- 1)))) (let ((.def_49 (or .def_48 .def_4))) (let ((.def_50 (and .def_49 .def_45))) (let ((.def_51 (not .def_50))) (let ((.def_52 (not A4))) (let ((.def_53 (+ .def_0 .def_21))) (let ((.def_54 (< .def_53 (- 1)))) (let ((.def_55 (not .def_54))) (let ((.def_56 (and .def_55 .def_52))) (let ((.def_57 (not .def_56))) (let ((.def_58 (* 1 x2))) (let ((.def_59 (< .def_58 (- 1)))) (let ((.def_60 (not .def_59))) (let ((.def_61 (* 1 x7))) (let ((.def_62 (* 1 x5))) (let ((.def_63 (+ .def_62 .def_61))) (let ((.def_64 (< .def_63 (- 1)))) (let ((.def_65 (and .def_64 .def_60))) (let ((.def_66 (and .def_65 .def_57))) (let ((.def_67 (not .def_66))) (let ((.def_68 (or .def_67 .def_51))) (let ((.def_69 (not .def_68))) (let ((.def_70 (< .def_12 (- 1)))) (let ((.def_71 (+ .def_61 .def_20))) (let ((.def_72 (< .def_71 (- 1)))) (let ((.def_73 (or .def_72 .def_70))) (let ((.def_74 (not .def_73))) (let ((.def_75 (* 1 x0))) (let ((.def_76 (< .def_75 1))) (let ((.def_77 (not .def_76))) (let ((.def_78 (+ .def_20 .def_12))) (let ((.def_79 (< .def_78 1))) (let ((.def_80 (= .def_79 .def_77))) (let ((.def_81 (not .def_80))) (let ((.def_82 (or .def_81 .def_74))) (let ((.def_83 (not .def_82))) (let ((.def_84 (< .def_11 (- 1)))) (let ((.def_85 (or A1 .def_84))) (let ((.def_86 (< .def_28 (- 1)))) (let ((.def_87 (< .def_39 1))) (let ((.def_88 (not .def_87))) (let ((.def_89 (or .def_88 .def_86))) (let ((.def_90 (not .def_89))) (let ((.def_91 (or .def_90 .def_85))) (let ((.def_92 (not .def_91))) (let ((.def_93 (and .def_92 .def_83))) (let ((.def_94 (and .def_93 .def_69))) (let ((.def_95 (not .def_94))) (let ((.def_96 (= .def_95 .def_38))) (let ((.def_97 (not A2))) (let ((.def_98 (* (- 1) x5))) (let ((.def_99 (* (- 1) x1))) (let ((.def_100 (+ .def_99 .def_98))) (let ((.def_101 (< .def_100 (- 1)))) (let ((.def_102 (and .def_101 .def_97))) (let ((.def_103 (not .def_102))) (let ((.def_104 (* 1 x9))) (let ((.def_105 (< .def_104 1))) (let ((.def_106 (not .def_105))) (let ((.def_107 (or A0 .def_106))) (let ((.def_108 (not .def_107))) (let ((.def_109 (or .def_108 .def_103))) (let ((.def_110 (not .def_109))) (let ((.def_111 (< .def_104 (- 1)))) (let ((.def_112 (not .def_111))) (let ((.def_113 (and .def_112 A0))) (let ((.def_114 (not .def_113))) (let ((.def_115 (< .def_28 1))) (let ((.def_116 (not .def_115))) (let ((.def_117 (< .def_46 (- 1)))) (let ((.def_118 (not .def_117))) (let ((.def_119 (or .def_118 .def_116))) (let ((.def_120 (not .def_119))) (let ((.def_121 (and .def_120 .def_114))) (let ((.def_122 (not .def_121))) (let ((.def_123 (and .def_122 .def_110))) (let ((.def_124 (not A8))) (let ((.def_125 (* (- 1) x0))) (let ((.def_126 (+ .def_125 .def_28))) (let ((.def_127 (< .def_126 1))) (let ((.def_128 (not .def_127))) (let ((.def_129 (or .def_128 .def_124))) (let ((.def_130 (not .def_129))) (let ((.def_131 (not A0))) (let ((.def_132 (= .def_43 .def_131))) (let ((.def_133 (not .def_132))) (let ((.def_134 (or .def_133 .def_130))) (let ((.def_135 (not .def_134))) (let ((.def_136 (< .def_20 (- 1)))) (let ((.def_137 (and .def_136 .def_52))) (let ((.def_138 (not .def_137))) (let ((.def_139 (+ .def_21 .def_104))) (let ((.def_140 (< .def_139 (- 1)))) (let ((.def_141 (or .def_140 A8))) (let ((.def_142 (not .def_141))) (let ((.def_143 (and .def_142 .def_138))) (let ((.def_144 (not .def_143))) (let ((.def_145 (or .def_144 .def_135))) (let ((.def_146 (or .def_145 .def_123))) (let ((.def_147 (not A1))) (let ((.def_148 (= A6 .def_147))) (let ((.def_149 (not .def_148))) (let ((.def_150 (not A9))) (let ((.def_151 (and .def_150 A0))) (let ((.def_152 (or .def_151 .def_149))) (let ((.def_153 (or .def_97 .def_4))) (let ((.def_154 (not .def_153))) (let ((.def_155 (< .def_46 1))) (let ((.def_156 (not .def_155))) (let ((.def_157 (or .def_156 A8))) (let ((.def_158 (and .def_157 .def_154))) (let ((.def_159 (and .def_158 .def_152))) (let ((.def_160 (or .def_131 .def_147))) (let ((.def_161 (not .def_160))) (let ((.def_162 (< .def_99 1))) (let ((.def_163 (and .def_162 .def_147))) (let ((.def_164 (or .def_163 .def_161))) (let ((.def_165 (+ .def_12 .def_99))) (let ((.def_166 (< .def_165 1))) (let ((.def_167 (and .def_117 .def_166))) (let ((.def_168 (not .def_167))) (let ((.def_169 (+ .def_42 .def_21))) (let ((.def_170 (< .def_169 1))) (let ((.def_171 (or .def_170 .def_131))) (let ((.def_172 (= .def_171 .def_168))) (let ((.def_173 (not .def_172))) (let ((.def_174 (or .def_173 .def_164))) (let ((.def_175 (or .def_174 .def_159))) (let ((.def_176 (and .def_175 .def_146))) (let ((.def_177 (not .def_176))) (let ((.def_178 (and .def_177 .def_96))) (let ((.def_179 (not .def_178))) (let ((.def_180 (+ .def_62 .def_39))) (let ((.def_181 (< .def_180 1))) (let ((.def_182 (and .def_4 .def_181))) (let ((.def_183 (or A2 .def_150))) (let ((.def_184 (and .def_183 .def_182))) (let ((.def_185 (* 1 x6))) (let ((.def_186 (+ .def_99 .def_185))) (let ((.def_187 (< .def_186 (- 1)))) (let ((.def_188 (not .def_187))) (let ((.def_189 (< .def_61 1))) (let ((.def_190 (= .def_189 .def_188))) (let ((.def_191 (< .def_75 (- 1)))) (let ((.def_192 (not .def_191))) (let ((.def_193 (or .def_52 .def_192))) (let ((.def_194 (or .def_193 .def_190))) (let ((.def_195 (not .def_194))) (let ((.def_196 (and .def_195 .def_184))) (let ((.def_197 (+ .def_42 .def_28))) (let ((.def_198 (< .def_197 1))) (let ((.def_199 (and .def_198 .def_162))) (let ((.def_200 (not .def_199))) (let ((.def_201 (< .def_125 (- 1)))) (let ((.def_202 (not .def_201))) (let ((.def_203 (or .def_202 A6))) (let ((.def_204 (not .def_203))) (let ((.def_205 (and .def_204 .def_200))) (let ((.def_206 (not .def_205))) (let ((.def_207 (+ .def_12 .def_42))) (let ((.def_208 (< .def_207 1))) (let ((.def_209 (and .def_208 A1))) (let ((.def_210 (* 1 x8))) (let ((.def_211 (+ .def_39 .def_210))) (let ((.def_212 (< .def_211 (- 1)))) (let ((.def_213 (not .def_212))) (let ((.def_214 (= .def_7 .def_213))) (let ((.def_215 (or .def_214 .def_209))) (let ((.def_216 (= .def_215 .def_206))) (let ((.def_217 (or .def_216 .def_196))) (let ((.def_218 (+ .def_42 .def_46))) (let ((.def_219 (< .def_218 (- 1)))) (let ((.def_220 (not .def_219))) (let ((.def_221 (and A8 .def_220))) (let ((.def_222 (not .def_221))) (let ((.def_223 (< .def_27 1))) (let ((.def_224 (not A5))) (let ((.def_225 (and .def_224 .def_223))) (let ((.def_226 (and .def_225 .def_222))) (let ((.def_227 (< .def_100 1))) (let ((.def_228 (and .def_227 .def_189))) (let ((.def_229 (not .def_228))) (let ((.def_230 (and A5 .def_7))) (let ((.def_231 (not .def_230))) (let ((.def_232 (or .def_231 .def_229))) (let ((.def_233 (or .def_232 .def_226))) (let ((.def_234 (or A1 A9))) (let ((.def_235 (not .def_234))) (let ((.def_236 (+ .def_42 .def_20))) (let ((.def_237 (< .def_236 (- 1)))) (let ((.def_238 (and .def_237 A6))) (let ((.def_239 (not .def_238))) (let ((.def_240 (or .def_239 .def_235))) (let ((.def_241 (not .def_240))) (let ((.def_242 (not .def_86))) (let ((.def_243 (or .def_70 .def_242))) (let ((.def_244 (not .def_243))) (let ((.def_245 (< .def_180 (- 1)))) (let ((.def_246 (< .def_125 1))) (let ((.def_247 (not .def_246))) (let ((.def_248 (or .def_247 .def_245))) (let ((.def_249 (not .def_248))) (let ((.def_250 (or .def_249 .def_244))) (let ((.def_251 (not .def_250))) (let ((.def_252 (or .def_251 .def_241))) (let ((.def_253 (not .def_252))) (let ((.def_254 (or .def_253 .def_233))) (let ((.def_255 (or .def_254 .def_217))) (let ((.def_256 (+ .def_61 .def_11))) (let ((.def_257 (< .def_256 (- 1)))) (let ((.def_258 (not .def_257))) (let ((.def_259 (or A8 .def_258))) (let ((.def_260 (not .def_259))) (let ((.def_261 (+ .def_46 .def_58))) (let ((.def_262 (< .def_261 1))) (let ((.def_263 (or .def_262 .def_59))) (let ((.def_264 (and .def_263 .def_260))) (let ((.def_265 (or A7 A4))) (let ((.def_266 (or A9 A5))) (let ((.def_267 (or .def_266 .def_265))) (let ((.def_268 (and .def_267 .def_264))) (let ((.def_269 (+ .def_46 .def_0))) (let ((.def_270 (< .def_269 (- 1)))) (let ((.def_271 (not .def_270))) (let ((.def_272 (and .def_271 .def_131))) (let ((.def_273 (< .def_98 (- 1)))) (let ((.def_274 (not .def_273))) (let ((.def_275 (= .def_274 A4))) (let ((.def_276 (not .def_275))) (let ((.def_277 (or .def_276 .def_272))) (let ((.def_278 (not .def_277))) (let ((.def_279 (+ .def_21 .def_58))) (let ((.def_280 (< .def_279 (- 1)))) (let ((.def_281 (+ .def_185 .def_28))) (let ((.def_282 (< .def_281 1))) (let ((.def_283 (not .def_282))) (let ((.def_284 (and .def_283 .def_280))) (let ((.def_285 (not .def_284))) (let ((.def_286 (not .def_189))) (let ((.def_287 (= .def_4 .def_286))) (let ((.def_288 (or .def_287 .def_285))) (let ((.def_289 (not .def_288))) (let ((.def_290 (= .def_289 .def_278))) (let ((.def_291 (not .def_290))) (let ((.def_292 (and .def_291 .def_268))) (let ((.def_293 (not .def_292))) (let ((.def_294 (+ .def_21 .def_61))) (let ((.def_295 (< .def_294 1))) (let ((.def_296 (= A1 .def_295))) (let ((.def_297 (not .def_296))) (let ((.def_298 (or .def_150 .def_10))) (let ((.def_299 (not .def_298))) (let ((.def_300 (and .def_299 .def_297))) (let ((.def_301 (+ .def_27 .def_98))) (let ((.def_302 (< .def_301 1))) (let ((.def_303 (not .def_302))) (let ((.def_304 (and A0 .def_303))) (let ((.def_305 (not .def_304))) (let ((.def_306 (< .def_0 1))) (let ((.def_307 (not .def_306))) (let ((.def_308 (or .def_307 A7))) (let ((.def_309 (not .def_308))) (let ((.def_310 (and .def_309 .def_305))) (let ((.def_311 (and .def_310 .def_300))) (let ((.def_312 (+ .def_98 .def_0))) (let ((.def_313 (< .def_312 (- 1)))) (let ((.def_314 (and .def_124 .def_313))) (let ((.def_315 (< .def_42 (- 1)))) (let ((.def_316 (< .def_98 1))) (let ((.def_317 (not .def_316))) (let ((.def_318 (or .def_317 .def_315))) (let ((.def_319 (and .def_318 .def_314))) (let ((.def_320 (not .def_319))) (let ((.def_321 (< .def_197 (- 1)))) (let ((.def_322 (not .def_321))) (let ((.def_323 (or .def_322 .def_242))) (let ((.def_324 (not .def_323))) (let ((.def_325 (< .def_185 (- 1)))) (let ((.def_326 (= .def_325 .def_10))) (let ((.def_327 (not .def_326))) (let ((.def_328 (and .def_327 .def_324))) (let ((.def_329 (or .def_328 .def_320))) (let ((.def_330 (not .def_329))) (let ((.def_331 (and .def_330 .def_311))) (let ((.def_332 (or .def_331 .def_293))) (let ((.def_333 (and .def_332 .def_255))) (let ((.def_334 (not .def_333))) (let ((.def_335 (and .def_334 .def_179))) (let ((.def_336 (not .def_335))) (let ((.def_337 (<= x9 1))) (let ((.def_338 (<= 0 x9))) (let ((.def_339 (<= x8 1))) (let ((.def_340 (<= 0 x8))) (let ((.def_341 (<= x7 1))) (let ((.def_342 (<= 0 x7))) (let ((.def_343 (<= x6 1))) (let ((.def_344 (<= 0 x6))) (let ((.def_345 (<= x5 1))) (let ((.def_346 (<= 0 x5))) (let ((.def_347 (<= x4 1))) (let ((.def_348 (<= 0 x4))) (let ((.def_349 (<= x3 1))) (let ((.def_350 (<= 0 x3))) (let ((.def_351 (<= x2 1))) (let ((.def_352 (<= 0 x2))) (let ((.def_353 (<= x1 1))) (let ((.def_354 (<= 0 x1))) (let ((.def_355 (<= x0 1))) (let ((.def_356 (<= 0 x0))) (let ((.def_357 (and .def_356 .def_355 .def_354 .def_353 .def_352 .def_351 .def_350 .def_349 .def_348 .def_347 .def_346 .def_345 .def_344 .def_343 .def_342 .def_341 .def_340 .def_339 .def_338 .def_337 .def_336))) .def_357)))))))))))))))))))))))))))))))))))))))))))))))))))))))))))))))))))))))))))))))))))))))))))))))))))))))))))))))))))))))))))))))))))))))))))))))))))))))))))))))))))))))))))))))))))))))))))))))))))))))))))))))))))))))))))))))))))))))))))))))))))))))))))))))))))))))))))))))))))))))))))))))))))))))))))))))))))))))))))))))))))))))))))))))))))))))))))))))))))))))
(check-sat)
